
-3.55
-3.2
-3.05
-3.0
-2.85
-2.75
-2.6
-2.5
-2.4
-2.4
-2.35
-2.15
-2.1
-2.0
-1.95
-1.75
-1.4
-1.2
-0.95
-0.75
-0.7
-0.65
-0.65
-0.6
-0.6
-0.55
-0.55
-0.55
-0.55
-0.55
-0.55
-0.55
-0.55
-0.55
-0.55
-0.55
-0.55
-0.55
-3.55
-3.25
-3.25
-3.15
-3.05
-3.05
-3.0
-3.0
-2.95
-2.8
-2.7
-2.6
-2.55
-2.45
-2.2
-2.0
-1.55
-1.1
-1.0
-0.9
-0.9
-0.9
-0.9
-0.9
-0.9
-0.9
-0.9
-0.9
-0.9
-0.9
-0.9
-0.9
-0.9
-0.85
-0.85
-0.85
-0.85